c Generated map
c Size: 10 * 10, weights in range: 1 to 10, walls: True, with ratio 0.1
c dim 4 of 6
c
p sp 100 145
c graph contains 100 nodes and 145 arcs
c
a 1 11 4
a 11 1 4
a 1 2 6
a 2 1 6
a 2 12 1
a 12 2 1
a 2 3 3
a 3 2 3
a 3 13 5
a 13 3 5
a 3 4 6
a 4 3 6
a 4 14 2
a 14 4 2
a 6 16 4
a 16 6 4
a 6 7 2
a 7 6 2
a 7 8 7
a 8 7 7
a 8 18 1
a 18 8 1
a 8 9 3
a 9 8 3
a 9 19 4
a 19 9 4
a 9 10 2
a 10 9 2
a 10 20 4
a 20 10 4
a 11 21 4
a 21 11 4
a 11 12 5
a 12 11 5
a 12 22 7
a 22 12 7
a 12 13 1
a 13 12 1
a 13 23 10
a 23 13 10
a 13 14 5
a 14 13 5
a 14 24 8
a 24 14 8
a 14 15 10
a 15 14 10
a 15 25 3
a 25 15 3
a 15 16 8
a 16 15 8
a 16 26 6
a 26 16 6
a 18 28 3
a 28 18 3
a 18 19 8
a 19 18 8
a 19 29 1
a 29 19 1
a 19 20 4
a 20 19 4
a 20 30 10
a 30 20 10
a 21 31 6
a 31 21 6
a 21 22 2
a 22 21 2
a 22 32 10
a 32 22 10
a 22 23 2
a 23 22 2
a 23 33 1
a 33 23 1
a 23 24 3
a 24 23 3
a 24 34 4
a 34 24 4
a 24 25 8
a 25 24 8
a 25 35 9
a 35 25 9
a 25 26 3
a 26 25 3
a 26 36 2
a 36 26 2
a 28 38 10
a 38 28 10
a 28 29 10
a 29 28 10
a 29 39 4
a 39 29 4
a 29 30 5
a 30 29 5
a 30 40 1
a 40 30 1
a 31 41 9
a 41 31 9
a 31 32 5
a 32 31 5
a 32 42 2
a 42 32 2
a 32 33 3
a 33 32 3
a 33 43 6
a 43 33 6
a 33 34 8
a 34 33 8
a 34 44 10
a 44 34 10
a 34 35 2
a 35 34 2
a 35 45 8
a 45 35 8
a 35 36 8
a 36 35 8
a 36 46 6
a 46 36 6
a 36 37 8
a 37 36 8
a 37 47 5
a 47 37 5
a 37 38 4
a 38 37 4
a 38 48 1
a 48 38 1
a 38 39 4
a 39 38 4
a 39 49 1
a 49 39 1
a 39 40 9
a 40 39 9
a 40 50 10
a 50 40 10
a 41 42 3
a 42 41 3
a 42 52 6
a 52 42 6
a 42 43 5
a 43 42 5
a 43 53 7
a 53 43 7
a 43 44 10
a 44 43 10
a 44 54 7
a 54 44 7
a 44 45 1
a 45 44 1
a 45 46 8
a 46 45 8
a 46 56 1
a 56 46 1
a 46 47 3
a 47 46 3
a 47 57 5
a 57 47 5
a 47 48 9
a 48 47 9
a 48 58 9
a 58 48 9
a 48 49 7
a 49 48 7
a 49 59 1
a 59 49 1
a 49 50 9
a 50 49 9
a 52 62 1
a 62 52 1
a 52 53 4
a 53 52 4
a 53 63 8
a 63 53 8
a 53 54 6
a 54 53 6
a 54 64 5
a 64 54 5
a 56 66 7
a 66 56 7
a 56 57 8
a 57 56 8
a 57 67 2
a 67 57 2
a 57 58 10
a 58 57 10
a 58 68 7
a 68 58 7
a 58 59 8
a 59 58 8
a 61 71 4
a 71 61 4
a 61 62 3
a 62 61 3
a 62 72 1
a 72 62 1
a 62 63 5
a 63 62 5
a 63 73 7
a 73 63 7
a 63 64 6
a 64 63 6
a 64 74 10
a 74 64 10
a 64 65 6
a 65 64 6
a 65 75 10
a 75 65 10
a 65 66 6
a 66 65 6
a 66 76 4
a 76 66 4
a 66 67 9
a 67 66 9
a 67 77 6
a 77 67 6
a 67 68 4
a 68 67 4
a 68 78 3
a 78 68 3
a 70 80 2
a 80 70 2
a 71 81 5
a 81 71 5
a 71 72 9
a 72 71 9
a 72 73 1
a 73 72 1
a 73 83 8
a 83 73 8
a 73 74 1
a 74 73 1
a 74 84 9
a 84 74 9
a 74 75 3
a 75 74 3
a 75 85 3
a 85 75 3
a 75 76 1
a 76 75 1
a 76 86 4
a 86 76 4
a 76 77 1
a 77 76 1
a 77 78 4
a 78 77 4
a 78 88 9
a 88 78 9
a 78 79 2
a 79 78 2
a 79 89 8
a 89 79 8
a 79 80 7
a 80 79 7
a 80 90 9
a 90 80 9
a 81 91 3
a 91 81 3
a 83 93 6
a 93 83 6
a 83 84 9
a 84 83 9
a 84 85 4
a 85 84 4
a 85 95 8
a 95 85 8
a 85 86 1
a 86 85 1
a 86 96 1
a 96 86 1
a 88 98 4
a 98 88 4
a 88 89 8
a 89 88 8
a 89 99 8
a 99 89 8
a 89 90 6
a 90 89 6
a 90 100 9
a 100 90 9
a 91 92 9
a 92 91 9
a 92 93 10
a 93 92 10
a 95 96 9
a 96 95 9
a 96 97 4
a 97 96 4
a 97 98 9
a 98 97 9
a 98 99 8
a 99 98 8
a 99 100 8
a 100 99 8
